c ! encoding i-pc 250
p cnf 774 1920
-251 0
251 -252 0
251 -253 0
251 -254 0
251 -255 0
-108 -257 0
256 -257 0
257 -258 0
94 -258 0
141 -260 0
259 -260 0
260 -261 0
-94 -261 0
258 261 -262 0
262 -263 0
39 -263 0
94 -264 0
-108 -264 0
264 -265 0
256 -265 0
265 -266 0
-39 -266 0
263 266 -267 0
268 0
269 -270 0
270 -271 0
224 -271 0
155 -272 0
-224 -272 0
271 272 -273 0
10 -274 0
275 -276 0
276 -277 0
-10 -277 0
274 277 -278 0
267 -279 0
273 -279 0
278 -279 0
279 -280 0
76 -280 0
-94 -281 0
141 -281 0
155 -281 0
-224 -281 0
281 -282 0
259 -282 0
282 -283 0
-76 -283 0
280 283 -284 0
29 -285 0
91 -285 0
95 -285 0
127 -285 0
161 -285 0
285 -286 0
116 -286 0
29 -287 0
161 -287 0
287 -288 0
95 -288 0
29 -289 0
161 -289 0
290 -291 0
291 -292 0
-161 -292 0
289 292 -293 0
293 -294 0
-95 -294 0
288 294 -295 0
295 -298 0
296 -298 0
297 -298 0
298 -299 0
-116 -299 0
286 299 -300 0
284 -301 0
300 -301 0
301 -303 0
302 -303 0
303 -304 0
151 -304 0
-116 -305 0
-127 -305 0
284 -306 0
295 -306 0
305 -306 0
296 -306 0
306 -307 0
-151 -307 0
304 307 -308 0
309 -310 0
310 -311 0
231 -311 0
174 -312 0
-231 -312 0
311 312 -313 0
314 -315 0
315 -316 0
16 -316 0
123 -317 0
-16 -317 0
316 317 -318 0
318 -319 0
128 -319 0
320 -321 0
314 -321 0
321 -322 0
-128 -322 0
319 322 -323 0
323 -324 0
324 -326 0
325 -326 0
326 -327 0
90 -327 0
318 -328 0
227 -328 0
123 -329 0
320 -329 0
329 -330 0
-227 -330 0
328 330 -331 0
331 -332 0
128 -332 0
314 -333 0
333 -334 0
227 -334 0
123 -335 0
-227 -335 0
334 335 -336 0
336 -337 0
320 -337 0
337 -338 0
-128 -338 0
332 338 -339 0
339 -341 0
340 -341 0
341 -342 0
-90 -342 0
327 342 -343 0
344 -345 0
345 -346 0
28 -346 0
347 -348 0
348 -349 0
-28 -349 0
346 349 -350 0
56 -351 0
70 -351 0
-73 -351 0
308 -352 0
313 -352 0
343 -352 0
350 -352 0
351 -352 0
352 -353 0
251 -354 0
353 354 -355 0
-22 -356 0
111 -356 0
-113 -356 0
-122 -356 0
160 -356 0
-169 -356 0
-199 -356 0
-225 -356 0
-249 -356 0
355 -357 0
356 -357 0
357 -358 0
-177 -358 0
255 358 -359 0
359 -360 0
85 -360 0
251 -361 0
360 361 -362 0
1 -363 0
5 -363 0
-9 -363 0
12 -363 0
-19 -363 0
21 -363 0
-26 -363 0
30 -363 0
-32 -363 0
36 -363 0
38 -363 0
-42 -363 0
-49 -363 0
-54 -363 0
68 -363 0
-71 -363 0
-79 -363 0
82 -363 0
-83 -363 0
93 -363 0
-104 -363 0
106 -363 0
-109 -363 0
114 -363 0
-115 -363 0
-117 -363 0
-118 -363 0
-119 -363 0
-129 -363 0
131 -363 0
-139 -363 0
-140 -363 0
-144 -363 0
-145 -363 0
-148 -363 0
149 -363 0
-152 -363 0
-153 -363 0
-156 -363 0
-163 -363 0
-181 -363 0
182 -363 0
-186 -363 0
-187 -363 0
192 -363 0
194 -363 0
-195 -363 0
-200 -363 0
-205 -363 0
211 -363 0
214 -363 0
215 -363 0
-217 -363 0
-218 -363 0
-233 -363 0
-234 -363 0
-237 -363 0
-239 -363 0
-245 -363 0
-246 -363 0
250 -363 0
364 -367 0
365 -367 0
366 -367 0
362 -368 0
363 -368 0
367 -368 0
368 -369 0
254 369 -370 0
-11 -371 0
-99 -371 0
158 -371 0
176 -371 0
-202 -371 0
370 -372 0
371 -372 0
372 -373 0
-48 -373 0
253 373 -374 0
374 -375 0
251 -376 0
375 376 -377 0
377 -378 0
251 -379 0
378 379 -380 0
74 -381 0
380 -382 0
381 -382 0
382 -383 0
251 -384 0
383 384 -385 0
41 -386 0
100 -386 0
385 -387 0
386 -387 0
387 -388 0
252 388 -389 0
389 -390 0
27 -390 0
251 -391 0
251 -392 0
251 -393 0
29 -394 0
-246 -394 0
394 -395 0
161 -395 0
29 -396 0
246 -396 0
290 -397 0
397 -398 0
-246 -398 0
396 398 -399 0
399 -400 0
-161 -400 0
395 400 -401 0
54 -402 0
70 -402 0
-73 -402 0
-237 -402 0
401 -404 0
402 -404 0
403 -404 0
404 -405 0
245 -405 0
-22 -406 0
-54 -406 0
-70 -406 0
406 -408 0
407 -408 0
408 -409 0
73 -409 0
403 -410 0
410 -411 0
54 -411 0
-22 -412 0
-54 -412 0
411 412 -413 0
413 -414 0
70 -414 0
-22 -415 0
-54 -415 0
415 -416 0
-70 -416 0
414 416 -417 0
417 -418 0
-237 -418 0
418 -419 0
-73 -419 0
409 419 -420 0
293 -421 0
420 -421 0
-246 -421 0
421 -422 0
-245 -422 0
405 422 -423 0
155 -424 0
217 -424 0
269 -425 0
425 -426 0
-217 -426 0
424 426 -427 0
427 -428 0
224 -428 0
155 -430 0
429 -430 0
430 -431 0
-224 -431 0
428 431 -432 0
-9 -433 0
26 -433 0
123 -433 0
-143 -433 0
160 -433 0
-186 -433 0
192 -433 0
-199 -433 0
200 -433 0
205 -433 0
-218 -433 0
-233 -433 0
309 -435 0
434 -435 0
423 -436 0
432 -436 0
433 -436 0
435 -436 0
436 -438 0
437 -438 0
438 -439 0
56 -439 0
401 -440 0
245 -440 0
293 -441 0
-246 -441 0
441 -442 0
-245 -442 0
440 442 -443 0
26 -444 0
123 -444 0
192 -444 0
443 -445 0
444 -445 0
445 -446 0
160 -446 0
123 -447 0
26 -447 0
314 -448 0
448 -449 0
-26 -449 0
447 449 -450 0
-245 -451 0
-246 -451 0
293 -452 0
450 -452 0
451 -452 0
452 -454 0
453 -454 0
454 -455 0
-160 -455 0
446 455 -456 0
174 -457 0
-187 -457 0
457 -458 0
199 -458 0
434 -459 0
309 -459 0
459 -460 0
-199 -460 0
458 460 -461 0
-9 -462 0
54 -462 0
70 -462 0
-73 -462 0
-237 -462 0
456 -463 0
461 -463 0
462 -463 0
463 -464 0
22 -464 0
-9 -465 0
70 -465 0
-73 -465 0
-237 -465 0
443 -466 0
465 -466 0
466 -467 0
54 -467 0
-70 -468 0
407 -468 0
468 -469 0
73 -469 0
-237 -471 0
470 -471 0
471 -472 0
-73 -472 0
469 472 -473 0
293 -474 0
473 -474 0
451 -474 0
474 -476 0
475 -476 0
476 -477 0
-54 -477 0
467 477 -478 0
478 -479 0
444 -479 0
479 -480 0
160 -480 0
465 -481 0
54 -481 0
473 -482 0
475 -482 0
482 -483 0
-54 -483 0
481 483 -484 0
293 -485 0
450 -485 0
484 -485 0
451 -485 0
485 -486 0
453 -486 0
486 -487 0
-160 -487 0
480 487 -488 0
434 -489 0
309 -489 0
488 -490 0
-199 -490 0
489 -490 0
490 -491 0
-22 -491 0
464 491 -492 0
-143 -493 0
205 -493 0
492 -494 0
427 -494 0
493 -494 0
494 -495 0
200 -495 0
427 -496 0
205 -496 0
-217 -497 0
269 -497 0
497 -498 0
-205 -498 0
496 498 -499 0
499 -500 0
-143 -500 0
500 -501 0
130 -501 0
427 -502 0
205 -502 0
502 -503 0
364 -503 0
503 -504 0
-130 -504 0
501 504 -505 0
444 -506 0
160 -506 0
450 -507 0
453 -507 0
507 -508 0
-160 -508 0
506 508 -509 0
9 -510 0
-22 -510 0
-54 -510 0
-199 -510 0
-245 -510 0
-246 -510 0
434 -511 0
309 -511 0
505 -512 0
509 -512 0
293 -512 0
473 -512 0
510 -512 0
511 -512 0
512 -513 0
-200 -513 0
495 513 -514 0
-36 -515 0
186 -515 0
218 -515 0
224 -515 0
233 -515 0
514 -516 0
515 -516 0
516 -517 0
-56 -517 0
439 517 -518 0
10 -519 0
-16 -519 0
49 -519 0
94 -519 0
-128 -519 0
-149 -519 0
156 -519 0
181 -519 0
227 -519 0
520 -524 0
521 -524 0
522 -524 0
523 -524 0
296 -524 0
518 -525 0
519 -525 0
524 -525 0
525 -526 0
393 526 -527 0
-95 -528 0
104 -528 0
-108 -528 0
111 -528 0
-116 -528 0
-127 -528 0
139 -528 0
-141 -528 0
153 -528 0
-169 -528 0
527 -530 0
528 -530 0
529 -530 0
530 -531 0
129 -531 0
251 -532 0
531 532 -533 0
39 -534 0
113 -534 0
533 -535 0
534 -535 0
535 -536 0
202 -536 0
251 -537 0
432 -539 0
538 -539 0
539 -540 0
89 -540 0
155 -541 0
-156 -541 0
217 -541 0
541 -543 0
542 -543 0
543 -544 0
-89 -544 0
540 544 -545 0
29 -546 0
54 -546 0
-161 -546 0
245 -546 0
546 -547 0
403 -547 0
547 -548 0
246 -548 0
549 -550 0
403 -550 0
550 -551 0
54 -551 0
-22 -552 0
-245 -552 0
552 -553 0
-54 -553 0
551 553 -554 0
554 -555 0
293 -555 0
555 -556 0
-246 -556 0
548 556 -557 0
-9 -558 0
10 -558 0
-16 -558 0
26 -558 0
39 -558 0
49 -558 0
56 -558 0
70 -558 0
-73 -558 0
94 -558 0
104 -558 0
-108 -558 0
113 -558 0
-116 -558 0
123 -558 0
-127 -558 0
-128 -558 0
139 -558 0
-143 -558 0
-149 -558 0
153 -558 0
160 -558 0
-169 -558 0
181 -558 0
-186 -558 0
192 -558 0
-199 -558 0
200 -558 0
205 -558 0
-218 -558 0
227 -558 0
-233 -558 0
-237 -558 0
521 -559 0
529 -559 0
522 -559 0
523 -559 0
296 -559 0
434 -559 0
520 -559 0
309 -559 0
545 -560 0
557 -560 0
558 -560 0
559 -560 0
560 -561 0
537 561 -562 0
-95 -563 0
111 -563 0
-141 -563 0
562 -564 0
563 -564 0
564 -565 0
129 -565 0
251 -566 0
565 566 -567 0
36 -568 0
567 -569 0
568 -569 0
569 -570 0
-202 -570 0
536 570 -571 0
571 -573 0
572 -573 0
573 -574 0
146 -574 0
251 -575 0
251 -576 0
26 -577 0
123 -577 0
160 -577 0
-186 -577 0
192 -577 0
-199 -577 0
-218 -577 0
-233 -577 0
434 -578 0
309 -578 0
403 -578 0
432 -579 0
443 -579 0
577 -579 0
578 -579 0
579 -580 0
437 -580 0
580 -581 0
56 -581 0
22 -582 0
174 -582 0
-187 -582 0
582 -583 0
199 -583 0
434 -584 0
309 -584 0
403 -584 0
584 -585 0
-199 -585 0
583 585 -586 0
456 -587 0
427 -587 0
586 -587 0
515 -587 0
587 -588 0
-56 -588 0
581 588 -589 0
-9 -590 0
70 -590 0
-73 -590 0
-143 -590 0
200 -590 0
589 -591 0
590 -591 0
591 -592 0
54 -592 0
-9 -593 0
26 -593 0
123 -593 0
-143 -593 0
160 -593 0
-186 -593 0
192 -593 0
200 -593 0
-218 -593 0
-233 -593 0
432 -594 0
593 -594 0
594 -595 0
437 -595 0
595 -596 0
56 -596 0
-143 -597 0
200 -597 0
364 -598 0
598 -599 0
-200 -599 0
597 599 -600 0
600 -601 0
9 -601 0
-143 -602 0
200 -602 0
602 -603 0
-9 -603 0
601 603 -604 0
509 -605 0
427 -605 0
604 -605 0
515 -605 0
605 -606 0
-56 -606 0
596 606 -607 0
-70 -608 0
73 -608 0
470 -609 0
609 -610 0
-73 -610 0
608 610 -611 0
-22 -612 0
-199 -612 0
-245 -612 0
-246 -612 0
434 -613 0
309 -613 0
607 -614 0
293 -614 0
611 -614 0
612 -614 0
613 -614 0
614 -615 0
-54 -615 0
592 615 -616 0
10 -617 0
-16 -617 0
49 -617 0
94 -617 0
-108 -617 0
-128 -617 0
-149 -617 0
156 -617 0
181 -617 0
205 -617 0
227 -617 0
-237 -617 0
520 -618 0
521 -618 0
523 -618 0
522 -618 0
296 -618 0
616 -619 0
617 -619 0
618 -619 0
619 -620 0
576 620 -621 0
68 -622 0
104 -622 0
111 -622 0
-116 -622 0
-127 -622 0
139 -622 0
-141 -622 0
153 -622 0
-169 -622 0
621 -623 0
622 -623 0
623 -624 0
575 624 -625 0
625 -626 0
-95 -626 0
626 -627 0
129 -627 0
251 -628 0
627 628 -629 0
629 -630 0
534 -630 0
630 -631 0
202 -631 0
251 -632 0
251 -633 0
-9 -634 0
10 -634 0
-16 -634 0
26 -634 0
39 -634 0
49 -634 0
56 -634 0
70 -634 0
-73 -634 0
94 -634 0
104 -634 0
-108 -634 0
113 -634 0
-116 -634 0
123 -634 0
-127 -634 0
-128 -634 0
139 -634 0
-143 -634 0
-149 -634 0
153 -634 0
160 -634 0
-169 -634 0
181 -634 0
-186 -634 0
192 -634 0
-199 -634 0
200 -634 0
205 -634 0
-218 -634 0
227 -634 0
-233 -634 0
-237 -634 0
520 -635 0
521 -635 0
522 -635 0
523 -635 0
296 -635 0
434 -635 0
309 -635 0
545 -636 0
557 -636 0
634 -636 0
635 -636 0
636 -637 0
633 637 -638 0
638 -639 0
639 -640 0
632 640 -641 0
36 -642 0
68 -642 0
-95 -642 0
111 -642 0
129 -642 0
-141 -642 0
641 -643 0
642 -643 0
643 -644 0
-202 -644 0
631 644 -645 0
645 -646 0
646 -647 0
-146 -647 0
574 647 -648 0
85 -649 0
163 -649 0
648 -650 0
649 -650 0
650 -651 0
251 -652 0
651 652 -653 0
653 -654 0
251 -655 0
654 655 -656 0
656 -657 0
392 657 -658 0
658 -660 0
659 -660 0
660 -661 0
391 661 -662 0
662 -663 0
251 -664 0
663 664 -665 0
665 -666 0
189 -666 0
251 -667 0
251 -668 0
251 -669 0
251 -670 0
-116 -671 0
153 -671 0
296 -673 0
672 -673 0
443 -674 0
671 -674 0
673 -674 0
674 -675 0
139 -675 0
91 -676 0
95 -676 0
676 -678 0
677 -678 0
678 -679 0
116 -679 0
672 -680 0
296 -680 0
680 -681 0
-116 -681 0
679 681 -682 0
293 -683 0
682 -683 0
451 -683 0
683 -685 0
684 -685 0
685 -686 0
-139 -686 0
675 686 -687 0
49 -688 0
113 -688 0
687 -689 0
688 -689 0
689 -690 0
538 -690 0
690 -691 0
181 -691 0
692 -693 0
693 -694 0
113 -694 0
-49 -695 0
-113 -695 0
694 695 -696 0
-116 -697 0
139 -697 0
153 -697 0
156 -697 0
672 -698 0
296 -698 0
443 -699 0
696 -699 0
697 -699 0
698 -699 0
699 -700 0
-181 -700 0
691 700 -701 0
-163 -702 0
149 -702 0
703 -704 0
704 -705 0
-149 -705 0
702 705 -706 0
-9 -707 0
10 -707 0
-16 -707 0
22 -707 0
26 -707 0
36 -707 0
39 -707 0
54 -707 0
56 -707 0
70 -707 0
-73 -707 0
-85 -707 0
89 -707 0
94 -707 0
-108 -707 0
-111 -707 0
115 -707 0
123 -707 0
127 -707 0
-128 -707 0
-141 -707 0
-143 -707 0
160 -707 0
169 -707 0
174 -707 0
-187 -707 0
192 -707 0
199 -707 0
200 -707 0
-202 -707 0
205 -707 0
215 -707 0
218 -707 0
227 -707 0
233 -707 0
-237 -707 0
521 -709 0
520 -709 0
708 -709 0
701 -710 0
706 -710 0
432 -710 0
707 -710 0
709 -710 0
710 -711 0
-129 -711 0
670 711 -712 0
68 -713 0
-104 -713 0
712 -714 0
713 -714 0
714 -715 0
669 715 -716 0
716 -717 0
251 -718 0
717 718 -719 0
719 -720 0
251 -721 0
720 721 -722 0
722 -724 0
723 -724 0
724 -725 0
668 725 -726 0
726 -727 0
727 -728 0
667 728 -729 0
729 -730 0
167 -730 0
251 -731 0
251 -732 0
251 -733 0
251 -734 0
-9 -735 0
10 -735 0
-16 -735 0
22 -735 0
26 -735 0
36 -735 0
39 -735 0
54 -735 0
56 -735 0
70 -735 0
-73 -735 0
-85 -735 0
94 -735 0
-108 -735 0
-111 -735 0
115 -735 0
-116 -735 0
123 -735 0
127 -735 0
-128 -735 0
139 -735 0
-141 -735 0
-143 -735 0
153 -735 0
156 -735 0
160 -735 0
169 -735 0
174 -735 0
-181 -735 0
-187 -735 0
192 -735 0
199 -735 0
200 -735 0
-202 -735 0
205 -735 0
215 -735 0
218 -735 0
227 -735 0
233 -735 0
-237 -735 0
521 -736 0
296 -736 0
520 -736 0
708 -736 0
672 -736 0
706 -737 0
443 -737 0
696 -737 0
432 -737 0
735 -737 0
736 -737 0
737 -738 0
-129 -738 0
734 738 -739 0
68 -740 0
-104 -740 0
739 -741 0
740 -741 0
741 -742 0
733 742 -743 0
743 -744 0
251 -745 0
744 745 -746 0
746 -747 0
747 -748 0
251 -749 0
748 749 -750 0
750 -751 0
251 -752 0
751 752 -753 0
753 -754 0
251 -755 0
754 755 -756 0
756 -757 0
732 757 -758 0
758 -760 0
759 -760 0
760 -761 0
731 761 -762 0
762 -763 0
-167 -763 0
730 763 -764 0
764 -765 0
-189 -765 0
766 -767 0
-27 -767 0
768 -769 0
251 -770 0
251 -773 0
-2 0
3 0
4 0
7 0
8 0
13 0
14 0
15 0
18 0
-20 0
23 0
-24 0
25 0
31 0
33 0
-35 0
37 0
40 0
43 0
-44 0
45 0
46 0
-47 0
-50 0
-51 0
52 0
-53 0
-55 0
57 0
-58 0
-59 0
-60 0
62 0
63 0
64 0
65 0
-66 0
-67 0
-69 0
72 0
75 0
-77 0
-78 0
-80 0
-81 0
-84 0
-86 0
87 0
-88 0
-92 0
-96 0
97 0
-98 0
-102 0
-103 0
105 0
107 0
110 0
-112 0
120 0
124 0
-125 0
-126 0
-132 0
133 0
-135 0
136 0
137 0
-138 0
147 0
150 0
154 0
-157 0
-159 0
164 0
-166 0
-168 0
-170 0
-171 0
172 0
-173 0
175 0
178 0
-179 0
183 0
184 0
185 0
-188 0
-190 0
191 0
193 0
196 0
198 0
-201 0
203 0
204 0
206 0
207 0
209 0
212 0
213 0
216 0
-219 0
-220 0
221 0
222 0
226 0
-228 0
229 0
230 0
-232 0
235 0
236 0
-238 0
-240 0
-241 0
-242 0
243 0
-247 0
-248 0
61 773 0
165 770 0
-769 771 0
-766 767 0
-765 766 0
-763 764 0
-762 763 0
-760 761 0
-753 754 0
-748 750 0
-743 744 0
-740 741 0
-730 764 0
-723 724 0
244 718 745 0
-716 717 0
-715 716 0
-714 715 0
-713 714 0
-712 714 0
-711 712 0
-169 707 735 0
111 707 735 0
-705 706 0
-703 704 0
-702 706 0
-695 696 0
-694 696 0
-693 694 0
-688 689 0
-687 689 0
-685 686 0
-682 683 0
-681 682 0
-680 681 0
-679 682 0
-101 677 0
-676 678 0
-674 675 0
-673 674 0
-671 674 0
-665 666 0
-663 665 0
-662 663 0
-660 661 0
-672 673 680 698 736 0
-658 660 0
-656 657 0
-654 656 0
-651 653 0
-650 651 0
-647 648 0
-726 727 0
-643 644 0
-725 726 0
-641 643 0
-640 641 0
-638 639 0
27 767 0
-720 722 0
-637 638 0
-636 637 0
-635 636 0
-634 636 0
-134 633 0
-727 728 0
-631 645 0
-629 630 0
-627 629 0
-626 627 0
-625 626 0
-621 623 0
-620 621 0
-619 620 0
-618 619 0
-615 616 0
-686 687 0
-614 615 0
-610 611 0
-603 604 0
-602 603 0
-599 600 0
-597 600 0
-594 595 0
-593 594 0
-591 592 0
-588 589 0
-587 588 0
-586 587 0
-585 586 0
-583 586 0
-581 589 0
-578 579 0
-577 579 0
-572 573 0
-568 569 0
-563 564 0
-560 561 0
-559 560 0
-558 560 0
-557 560 636 0
-556 557 0
-555 556 0
-551 554 0
-692 693 0
-550 551 0
-549 550 0
-548 557 0
-547 548 0
-545 560 636 0
-544 545 0
-540 545 0
-539 540 0
-696 699 737 0
-197 537 575 0
-202 536 631 0
-535 536 0
-531 533 0
-129 531 565 627 642 670 734 0
-530 531 0
-529 530 559 0
68 529 0
-528 530 0
-683 685 0
-744 746 0
-678 679 0
-605 606 0
-613 614 0
-139 528 558 622 634 675 697 735 0
-104 528 558 622 634 0
-706 710 737 0
-719 720 0
-741 742 0
-525 526 0
-524 525 0
-742 743 0
-115 523 707 735 0
-522 524 559 618 635 0
215 522 0
12 520 0
-519 525 0
-611 614 0
-772 774 0
-553 554 0
-181 519 558 617 634 691 0
-156 519 538 617 697 735 0
149 519 558 617 634 705 0
-649 650 0
-538 539 690 0
-601 604 0
-49 519 558 617 634 688 692 0
-113 534 558 634 688 694 0
-518 525 0
56 517 588 606 0
-516 517 0
-515 516 587 605 0
-233 515 707 735 0
-218 515 707 735 0
-186 515 708 0
-514 516 0
-513 514 0
-510 512 0
-509 512 605 0
-507 508 0
-504 505 0
-502 503 0
-501 505 0
-499 500 0
-498 499 0
-497 498 0
-496 499 0
-494 495 0
-493 494 0
-491 492 0
-489 490 0
-487 488 0
71 363 0
-503 504 0
-348 349 0
-704 705 0
42 363 0
-584 585 0
160 455 487 508 0
-485 486 0
-269 270 425 497 0
-573 574 0
-263 267 0
-738 739 0
-710 711 0
-582 583 0
-161 285 287 289 395 0
-661 662 0
-155 269 272 281 424 430 541 0
32 363 0
-21 363 0
139 363 686 0
-12 363 520 0
9 363 433 462 465 475 558 590 593 603 634 707 735 0
-315 316 0
167 384 664 763 0
-700 701 0
-360 362 0
-85 360 649 0
177 358 0
-406 408 0
-691 701 0
-444 445 479 506 0
-359 360 0
-690 691 0
-358 359 0
-356 357 0
199 356 433 460 490 510 558 577 585 612 634 0
-508 509 0
-523 524 559 618 635 0
-160 356 433 446 480 506 558 577 593 634 707 735 0
-30 363 0
-484 485 0
-111 356 528 563 622 642 0
-644 645 0
-653 654 0
-268 270 276 291 310 315 321 333 397 410 425 448 459 550 584 598 609 693 704 0
-431 432 0
-352 353 0
-736 737 0
-707 710 0
-505 512 0
-36 363 437 568 642 707 735 0
-402 404 0
-554 555 0
-29 285 287 289 290 394 396 546 0
-41 386 392 668 732 0
-746 747 0
16 317 320 519 558 617 634 707 735 0
-56 351 439 558 581 596 634 707 735 0
-697 699 0
-350 352 0
-699 700 0
-351 352 0
6 347 0
-446 456 0
-441 442 0
-345 346 0
-344 345 0
-366 367 0
-343 352 0
-301 303 0
-300 301 0
-346 350 0
-701 710 0
169 356 528 558 622 634 0
90 342 0
-771 772 0
-292 293 0
153 363 684 0
-338 339 0
-337 338 0
-335 336 0
-332 339 0
-95 285 288 672 676 0
-542 543 0
187 363 434 457 582 707 735 0
-506 509 0
-322 323 0
-759 760 0
-574 648 0
-284 301 306 0
-312 313 0
-648 650 0
-217 424 429 541 0
-339 341 0
-299 300 0
-754 756 0
-76 280 519 558 617 634 707 735 0
-512 513 0
-490 491 0
19 363 0
-277 278 0
-293 294 421 441 452 474 485 512 555 614 683 0
-9 475 510 601 0
-319 323 0
-288 295 0
-428 432 0
-234 521 0
-403 404 410 547 550 578 584 0
-316 318 0
-290 291 397 0
-341 342 0
208 275 0
-116 286 679 0
-302 303 0
-459 460 0
-272 273 0
-474 476 0
-287 288 0
-340 341 0
39 266 0
-317 318 0
-758 760 0
-411 413 0
-224 271 428 515 542 0
-274 278 0
-256 257 265 0
174 309 0
-82 363 393 576 632 0
-282 283 0
10 277 0
-310 311 0
-106 363 0
-571 573 0
-265 266 0
-396 399 0
-266 267 0
-273 279 0
140 363 0
-22 403 464 582 707 735 0
-270 271 0
83 363 0
-604 605 0
-176 371 0
-330 331 0
-401 404 440 0
-552 553 0
-309 310 435 459 489 511 559 578 584 613 635 0
-729 730 0
-646 647 0
-283 284 0
-146 254 574 669 733 0
-534 535 630 0
123 314 0
-205 433 493 496 502 558 617 634 707 735 0
-276 277 0
-289 293 0
161 292 400 546 0
73 351 402 419 462 465 472 558 590 610 634 707 735 0
-347 348 0
-684 685 0
-565 567 0
-451 452 474 485 683 0
-259 260 282 0
-16 316 320 0
-321 322 0
-215 363 522 707 735 0
54 363 406 412 415 477 483 510 553 615 0
-416 417 0
-267 279 0
-329 330 0
-395 401 0
26 363 449 0
-271 273 0
-722 724 0
-639 640 0
141 256 528 563 622 642 707 735 0
-495 514 0
108 257 259 264 528 558 617 634 707 735 0
-436 438 0
-728 729 0
-645 646 0
-280 284 0
-724 725 0
-463 464 0
-570 571 0
-264 265 0
-399 400 0
-324 326 0
-397 398 0
-717 719 0
115 363 523 0
95 294 528 563 626 642 672 0
-425 426 0
-91 285 296 676 0
-533 535 0
-17 340 0
-380 382 0
-764 765 0
-189 252 666 0
-294 295 0
-675 687 0
122 356 0
-334 336 0
-342 343 0
-567 569 0
-447 450 0
-258 262 0
-564 565 0
-445 446 0
-257 258 0
-368 369 0
-278 279 0
11 371 0
-708 709 736 0
-433 436 0
22 356 403 406 412 415 491 510 552 612 0
-622 623 0
-141 256 260 281 0
-68 363 529 622 642 713 740 0
-440 443 0
-158 371 0
-756 757 0
-698 699 0
-123 314 317 329 335 433 444 447 558 577 593 634 707 735 0
94 261 281 0
-187 434 0
-472 473 0
-180 344 0
-458 461 0
-592 616 0
-333 334 0
-471 472 0
-569 570 0
-449 450 0
-261 262 0
-331 332 0
-561 562 0
-442 443 0
-349 350 0
155 269 0
-398 399 0
-323 324 0
-394 395 0
-562 564 0
-443 445 466 579 674 699 737 0
-488 490 0
225 356 0
-430 431 0
117 363 0
-108 259 0
-357 358 0
-362 368 0
200 363 513 599 0
-353 355 0
-432 436 539 579 594 710 737 0
-580 581 0
-285 286 0
-624 625 0
-131 363 0
-642 643 0
29 290 0
-543 544 0
127 297 305 528 558 622 634 0
-327 343 0
-306 307 0
162 354 0
-70 351 402 414 462 465 470 558 590 634 707 735 0
-295 298 306 0
-5 363 0
-297 298 0
156 363 538 541 0
-590 591 0
227 325 330 335 0
-355 357 0
-38 363 0
224 272 281 431 542 0
-709 710 0
-320 321 329 337 0
-589 591 0
91 296 0
-336 337 0
-607 614 0
-409 420 0
-657 658 0
-296 298 306 524 559 618 635 673 680 698 736 0
116 299 305 528 558 622 634 671 681 697 735 0
-375 377 0
-517 518 0
-520 524 559 618 635 709 736 0
-492 494 0
-303 304 0
-617 619 0
-227 325 328 334 519 558 617 634 707 735 0
249 356 0
-579 580 0
-304 308 0
-305 306 0
151 307 0
-470 471 609 0
-307 308 0
70 406 416 468 470 608 0
-308 352 0
-526 527 0
-174 309 312 457 582 707 735 0
-163 649 703 0
-313 352 0
231 312 0
-541 543 0
-128 319 332 0
-616 619 0
28 349 0
-385 387 0
-314 315 321 333 448 0
48 373 652 721 749 0
-318 319 328 0
128 322 338 519 558 617 634 707 735 0
-761 762 0
-130 501 0
-325 326 0
-94 258 264 519 558 617 634 707 735 0
-623 624 0
186 363 433 558 577 593 634 708 0
-127 285 297 707 735 0
-326 327 0
-275 276 0
-439 518 0
-475 476 482 0
-413 414 0
-89 363 519 540 617 707 735 0
181 363 700 735 0
-93 363 0
-751 753 0
-405 423 0
189 388 765 0
-521 524 559 618 635 709 736 0
-511 512 0
-630 631 0
-478 479 0
-311 313 0
-194 363 0
-500 501 0
104 363 713 740 0
109 363 0
-462 463 0
-448 449 0
-260 261 0
202 371 570 644 707 735 0
-677 678 0
-114 363 0
118 363 0
-211 363 0
-750 751 0
119 363 0
-757 758 0
-389 390 0
-466 467 0
129 363 532 566 628 711 738 0
-476 477 0
-659 660 0
144 363 0
-455 456 0
145 363 0
-387 388 0
148 363 0
-595 596 0
-418 419 0
-291 292 0
-149 363 702 0
152 363 0
-74 381 0
-182 363 0
-546 547 0
-192 363 433 444 453 558 577 593 634 707 735 0
99 371 0
195 363 0
205 363 498 0
-281 282 0
-214 363 0
121 379 755 0
217 363 426 429 497 0
218 363 433 558 577 593 634 0
233 363 433 558 577 593 634 0
234 363 521 0
-386 387 0
237 363 402 407 418 462 465 471 558 617 634 707 735 0
239 363 0
-737 738 0
-1 363 0
-739 741 0
-410 411 0
245 363 422 442 451 510 549 552 612 0
49 363 692 695 0
-437 438 580 595 0
246 363 394 398 421 441 451 510 556 612 0
-456 463 587 0
-747 748 0
-422 423 0
-250 363 0
-465 466 481 0
-363 368 0
-143 364 0
143 364 433 493 500 558 590 593 597 602 634 707 735 0
-165 769 0
-364 367 503 598 0
-612 614 0
-286 300 0
-223 365 0
-298 299 0
-427 428 494 496 502 587 605 0
-365 367 0
-142 366 0
-453 454 486 507 0
-377 378 0
-367 368 0
-369 370 0
-370 372 0
-689 690 0
-371 372 0
-372 373 0
-373 374 0
-452 454 0
-374 375 0
76 283 0
-378 380 0
-735 737 0
-404 405 0
34 376 655 752 0
-381 382 0
-460 461 0
-382 383 0
-383 385 0
-100 386 391 667 731 0
192 453 0
-388 389 0
79 363 0
-27 390 0
-328 331 0
-400 401 0
-536 571 0
-262 263 0
-450 452 485 507 0
-54 402 411 462 467 481 546 551 592 707 735 0
-527 530 0
-245 405 440 546 549 0
-237 407 0
-596 607 0
-407 408 468 0
-606 607 0
-408 409 0
-73 409 469 608 0
-600 601 0
113 356 695 0
-412 413 0
-414 417 0
-415 416 0
-246 396 548 0
-417 418 0
210 302 0
-461 463 0
-609 610 0
-419 420 0
-608 611 0
-420 421 0
-421 422 0
-423 436 0
-424 427 0
-426 427 0
-429 430 0
-200 433 495 558 590 593 597 602 634 707 735 0
-434 435 459 489 511 559 578 584 613 635 0
-435 436 0
36 437 515 0
-438 439 0
-454 455 0
-26 433 444 447 558 577 593 634 707 735 0
-457 458 0
-199 458 583 707 735 0
-464 492 0
-467 478 0
-279 280 0
-468 469 0
85 361 707 735 0
-469 473 0
-473 474 482 512 0
89 544 0
-477 478 0
-479 480 0
-480 488 0
-481 484 0
-482 483 0
-483 484 0
-598 599 0
-486 487 0
